p tw 152 394
0 1
0 2
0 3
0 4
0 130
0 131
1 2
1 3
1 4
1 67
1 148
2 3
2 4
2 69
2 118
3 4
3 38
3 93
3 99
4 39
4 94
4 100
5 6
5 137
5 139
5 140
6 23
6 138
6 143
6 144
7 8
7 51
7 52
7 53
8 101
8 113
8 142
9 10
9 11
9 12
9 86
10 11
10 12
10 33
10 87
10 89
11 12
11 83
11 128
11 150
12 84
12 129
12 146
13 14
13 15
13 16
13 17
13 114
14 15
14 16
14 17
14 48
14 49
14 50
15 16
15 17
15 115
16 17
16 19
16 61
16 132
17 18
17 62
17 116
18 19
18 62
18 116
19 61
19 132
20 21
20 22
20 23
20 117
20 125
21 22
21 23
21 120
21 141
22 23
22 119
22 122
22 123
22 124
23 138
23 143
23 144
24 25
24 45
24 79
24 80
25 110
25 111
26 27
26 28
26 29
26 127
27 28
27 29
27 37
28 29
28 70
28 71
28 72
28 73
29 103
29 108
29 109
30 31
30 76
30 80
30 104
31 43
31 44
31 45
32 33
32 34
32 35
32 36
32 56
32 90
32 121
33 34
33 35
33 36
33 87
33 89
34 35
34 36
34 41
34 85
35 36
35 42
36 40
36 65
37 73
37 109
37 127
38 39
38 93
38 99
39 94
39 100
40 41
40 42
40 65
41 42
41 85
43 44
43 45
43 104
44 45
44 58
44 76
44 77
44 78
45 79
45 80
46 47
46 139
46 144
46 149
47 140
47 143
47 147
48 49
48 50
48 89
48 90
48 91
48 92
49 50
49 81
49 82
50 107
50 121
51 52
51 53
51 75
51 95
51 142
52 53
52 74
52 96
52 101
52 102
53 113
54 55
54 56
54 57
54 107
55 56
55 57
55 63
55 66
55 106
56 57
56 90
56 121
57 64
57 68
57 105
58 59
58 60
58 76
58 77
58 78
59 60
59 112
60 85
60 146
60 150
60 151
61 62
61 132
62 116
63 64
63 66
63 106
64 68
64 105
65 66
65 67
65 68
65 69
66 67
66 68
66 69
66 106
67 68
67 69
67 148
68 69
68 105
69 118
70 71
70 72
70 73
70 81
70 88
70 91
71 72
71 73
71 108
72 73
72 103
73 109
73 127
74 75
74 96
74 101
74 102
75 95
75 142
76 77
76 78
76 80
76 104
77 78
77 112
77 151
78 133
78 136
79 80
79 111
79 122
79 135
80 104
81 82
81 88
81 91
82 92
83 84
83 128
83 150
84 129
84 146
85 146
85 150
85 151
86 87
86 88
87 88
87 89
88 91
89 90
89 91
89 92
90 91
90 92
90 121
91 92
93 94
93 99
94 100
95 96
95 142
96 101
96 102
97 98
97 99
97 100
97 124
97 125
97 126
98 99
98 100
98 117
99 100
101 102
101 113
101 142
102 110
102 119
102 120
103 108
103 109
105 106
107 121
108 109
109 127
110 111
110 119
110 120
111 122
111 135
112 151
113 142
114 115
114 116
114 132
115 116
115 132
116 132
117 125
118 148
119 120
119 122
119 123
119 124
120 141
122 123
122 124
122 135
123 124
123 141
124 125
124 126
125 126
126 130
126 133
126 134
126 135
128 129
128 150
129 146
130 131
130 133
130 134
130 135
131 136
131 145
133 134
133 135
133 136
134 135
134 145
136 145
137 138
137 139
137 140
138 143
138 144
139 140
139 144
139 149
140 143
140 147
143 144
143 147
144 149
146 150
146 151
147 149
150 151
